\ Model Cl_30_Ins_8.lp
\ LP format - for model browsing. Use MPS format to capture full model detail.
Maximize
 
Subject To
 obj1: y[0] = 0
 obj2: y[1] = 0
 obj1_Exp: - y[0] + 99 x[0] + 96 x[1] + 91 x[2] + 91 x[3] + 90 x[4]
   + 89 x[5] + 81 x[6] + 79 x[7] + 75 x[8] + 69 x[9] + 68 x[10] + 63 x[11]
   + 61 x[12] + 58 x[13] + 56 x[14] + 46 x[15] + 44 x[16] + 40 x[17]
   + 38 x[18] + 34 x[19] + 31 x[20] + 31 x[21] + 28 x[22] + 23 x[23]
   + 23 x[24] + 23 x[25] + 22 x[26] + 19 x[27] + 10 x[28] + 10 x[29] = 0
 obj2_Exp: - y[1] + 95 x[0] + 76 x[1] + 91 x[2] + 70 x[3] + 70 x[4]
   + 16 x[5] + 9 x[6] + 22 x[7] + 20 x[8] + 80 x[9] + 42 x[10] + 81 x[11]
   + 88 x[12] + 65 x[13] + 52 x[14] + 6 x[15] + 89 x[16] + 58 x[17]
   + 75 x[18] + 69 x[19] + 34 x[20] + 81 x[21] + 26 x[22] + 88 x[23]
   + 96 x[24] + 59 x[25] + 25 x[26] + 66 x[27] + 26 x[28] + 48 x[29] = 0
 Budget: 109 x[0] + 106 x[1] + 101 x[2] + 101 x[3] + 100 x[4] + 99 x[5]
   + 91 x[6] + 89 x[7] + 85 x[8] + 79 x[9] + 78 x[10] + 73 x[11] + 71 x[12]
   + 68 x[13] + 66 x[14] + 56 x[15] + 54 x[16] + 50 x[17] + 48 x[18]
   + 44 x[19] + 41 x[20] + 41 x[21] + 38 x[22] + 33 x[23] + 33 x[24]
   + 33 x[25] + 32 x[26] + 29 x[27] + 20 x[28] + 20 x[29] <= 702
Bounds
Binaries
 x[0] x[1] x[2] x[3] x[4] x[5] x[6] x[7] x[8] x[9] x[10] x[11] x[12] x[13]
 x[14] x[15] x[16] x[17] x[18] x[19] x[20] x[21] x[22] x[23] x[24] x[25]
 x[26] x[27] x[28] x[29]
Generals
 y[0] y[1]
End
